n_machines = 10;
n_resources = 12;
n_jobs = 127;
horizon = 6122;
LB = 873;
n_jobs_per_resource = [6, 12, 13, 15, 13, 7, 6, 1, 10, 18, 15, 11];
duration = [74, 51, 75, 33, 33, 14, 49, 47, 34, 67, 48, 73, 13, 6, 76, 64, 31, 42, 35, 21, 72, 56, 71, 52, 72, 89, 17, 25, 26, 51, 94, 58, 17, 45, 7, 88, 18, 45, 70, 97, 53, 63, 41, 47, 42, 28, 23, 24, 63, 16, 33, 17, 50, 90, 44, 37, 99, 23, 44, 55, 32, 99, 23, 23, 83, 84, 60, 31, 74, 11, 26, 61, 99, 77, 20, 2, 54, 83, 50, 23, 75, 42, 15, 7, 92, 90, 42, 37, 12, 6, 72, 51, 48, 54, 64, 53, 71, 25, 35, 49, 65, 14, 11, 64, 69, 42, 97, 50, 6, 23, 45, 87, 23, 44, 95, 16, 92, 11, 22, 70, 37, 88, 46, 61, 47, 86, 8]